p cnf 780 2229
a 1 2 3 4 5 6 7 8 9 10 11 12 13 14 15 16 17 18 19 20 21 22 23 24 25 26 27 28 29 30 31 32 33 34 35 36 37 38 39 40 41 42 43 44 45 46 47 48 49 50 51 52 53 54 55 56 57 58 59 60 61 62 63 64 0
e 65 66 67 68 69 70 71 72 73 74 75 76 77 78 79 80 81 82 83 84 85 86 87 88 89 90 91 92 93 94 95 96 97 98 99 100 101 102 103 104 105 106 107 108 109 110 111 112 113 114 115 116 117 118 119 120 121 122 123 124 125 126 127 128 129 130 131 132 133 134 135 136 137 138 139 140 141 142 143 144 145 146 147 148 149 150 151 152 153 154 155 156 157 158 159 160 161 162 163 164 165 166 167 168 169 170 171 172 173 174 175 176 177 178 179 180 181 182 183 184 185 186 187 188 189 190 191 192 193 194 195 196 197 198 199 200 201 202 203 204 205 206 207 208 209 210 211 212 213 214 215 216 217 218 219 220 221 222 223 224 225 226 227 228 229 230 231 232 233 234 235 236 237 238 239 240 241 242 243 244 245 246 247 248 249 250 251 252 253 254 255 256 257 258 259 260 261 262 263 264 265 266 267 268 269 270 271 272 273 274 275 276 277 278 279 280 281 282 283 284 285 286 287 288 289 290 291 292 293 294 295 296 297 298 299 300 301 302 303 304 305 306 307 308 309 310 311 312 313 314 315 316 317 318 319 320 321 322 323 324 325 326 327 328 329 330 331 332 333 334 335 336 337 338 339 340 341 342 343 344 345 346 347 348 349 350 351 352 353 354 355 356 357 358 359 360 361 362 363 364 365 366 367 368 369 370 371 372 373 374 375 376 377 378 379 380 381 382 383 384 385 386 387 388 389 390 391 392 393 394 395 396 397 398 399 400 401 402 403 404 405 406 407 408 409 410 411 412 413 414 415 416 417 418 419 420 421 422 423 424 425 426 427 428 429 430 431 432 433 434 435 436 437 438 439 440 441 442 443 444 445 446 447 448 449 450 451 452 453 454 455 456 457 458 459 460 461 462 463 464 465 466 467 468 469 470 471 472 473 474 475 476 477 478 479 480 481 482 483 484 485 486 487 488 489 490 491 492 493 494 495 496 497 498 499 500 501 502 503 504 505 506 507 508 509 510 511 512 513 514 515 516 517 518 519 520 521 522 523 524 525 526 527 528 529 530 531 532 533 534 535 536 537 538 539 540 541 542 543 544 545 546 547 548 549 550 551 552 553 554 555 556 557 558 559 560 561 562 563 564 565 566 567 568 569 570 571 572 573 574 575 576 577 578 579 580 581 582 583 584 585 586 587 588 589 590 591 592 593 594 595 596 597 598 599 600 601 602 603 604 605 606 607 608 609 610 611 612 613 614 615 616 617 618 619 620 621 622 623 624 625 626 627 628 629 630 631 632 633 634 635 636 637 638 639 640 641 642 643 644 645 646 647 648 649 650 651 652 653 654 655 656 657 658 659 660 661 662 663 664 665 666 667 668 669 670 671 672 673 674 675 676 677 678 679 680 681 682 683 684 685 686 687 688 689 690 691 692 693 694 695 696 697 698 699 700 701 702 703 704 705 706 707 708 709 710 711 712 713 714 715 716 717 718 719 720 721 722 723 724 725 726 727 728 729 730 731 732 733 734 735 736 737 738 739 740 741 742 743 744 745 746 747 748 749 750 751 752 753 754 755 756 757 758 759 760 761 762 763 764 765 766 767 768 769 770 771 772 773 774 775 776 777 778 779 0
-1 -121 0
-2 -121 0
-3 -121 0
1 2 3 121 0
-4 -122 0
-5 -122 0
-6 -122 0
4 5 6 122 0
121 -123 0
122 -123 0
-7 -123 0
-8 -123 0
7 8 123 -121 -122 0
-7 -8 -124 0
7 8 -124 0
8 124 -7 0
7 124 -8 0
125 -1 0
1 -125 0
-2 -125 -126 0
2 125 -126 0
125 126 -2 0
2 126 -125 0
2 -127 0
125 -127 0
127 -2 -125 0
128 -127 0
127 -128 0
-3 -128 -129 0
3 128 -129 0
128 129 -3 0
3 129 -128 0
3 -130 0
128 -130 0
130 -3 -128 0
131 -130 0
130 -131 0
-124 -132 0
-1 -132 0
124 1 132 0
124 -133 0
1 -133 0
133 -124 -1 0
134 -132 0
134 -133 0
132 133 -134 0
-124 -135 0
126 -135 0
124 135 -126 0
124 -136 0
2 -136 0
136 -124 -2 0
137 -135 0
137 -136 0
135 136 -137 0
-124 -138 0
129 -138 0
124 138 -129 0
124 -139 0
3 -139 0
139 -124 -3 0
140 -138 0
140 -139 0
138 139 -140 0
-9 -134 -141 0
9 134 -141 0
134 141 -9 0
9 141 -134 0
-10 -137 -142 0
10 137 -142 0
137 142 -10 0
10 142 -137 0
-11 -140 -143 0
11 140 -143 0
140 143 -11 0
11 143 -140 0
-141 -144 0
-142 -144 0
-143 -144 0
141 142 143 144 0
145 -4 0
4 -145 0
-5 -145 -146 0
5 145 -146 0
145 146 -5 0
5 146 -145 0
5 -147 0
145 -147 0
147 -5 -145 0
148 -147 0
147 -148 0
-6 -148 -149 0
6 148 -149 0
148 149 -6 0
6 149 -148 0
6 -150 0
148 -150 0
150 -6 -148 0
151 -150 0
150 -151 0
-124 -152 0
4 -152 0
124 152 -4 0
124 -153 0
-4 -153 0
4 153 -124 0
154 -152 0
154 -153 0
152 153 -154 0
-124 -155 0
5 -155 0
124 155 -5 0
124 -156 0
146 -156 0
156 -124 -146 0
157 -155 0
157 -156 0
155 156 -157 0
-124 -158 0
6 -158 0
124 158 -6 0
124 -159 0
149 -159 0
159 -124 -149 0
160 -158 0
160 -159 0
158 159 -160 0
-12 -154 -161 0
12 154 -161 0
154 161 -12 0
12 161 -154 0
-13 -157 -162 0
13 157 -162 0
157 162 -13 0
13 162 -157 0
-14 -160 -163 0
14 160 -163 0
160 163 -14 0
14 163 -160 0
-161 -164 0
-162 -164 0
-163 -164 0
161 162 163 164 0
8 -15 -165 0
15 -8 -165 0
165 -15 -8 0
15 8 165 0
-16 -7 -166 0
16 7 -166 0
7 166 -16 0
16 166 -7 0
144 -167 0
164 -167 0
-165 -167 0
-166 -167 0
165 166 167 -144 -164 0
-15 -16 -168 0
15 16 -168 0
16 168 -15 0
15 168 -16 0
169 -9 0
9 -169 0
-10 -169 -170 0
10 169 -170 0
169 170 -10 0
10 170 -169 0
10 -171 0
169 -171 0
171 -10 -169 0
172 -171 0
171 -172 0
-11 -172 -173 0
11 172 -173 0
172 173 -11 0
11 173 -172 0
11 -174 0
172 -174 0
174 -11 -172 0
175 -174 0
174 -175 0
-168 -176 0
-9 -176 0
168 9 176 0
168 -177 0
9 -177 0
177 -168 -9 0
178 -176 0
178 -177 0
176 177 -178 0
-168 -179 0
170 -179 0
168 179 -170 0
168 -180 0
10 -180 0
180 -168 -10 0
181 -179 0
181 -180 0
179 180 -181 0
-168 -182 0
173 -182 0
168 182 -173 0
168 -183 0
11 -183 0
183 -168 -11 0
184 -182 0
184 -183 0
182 183 -184 0
-17 -178 -185 0
17 178 -185 0
178 185 -17 0
17 185 -178 0
-18 -181 -186 0
18 181 -186 0
181 186 -18 0
18 186 -181 0
-19 -184 -187 0
19 184 -187 0
184 187 -19 0
19 187 -184 0
-185 -188 0
-186 -188 0
-187 -188 0
185 186 187 188 0
189 -12 0
12 -189 0
-13 -189 -190 0
13 189 -190 0
189 190 -13 0
13 190 -189 0
13 -191 0
189 -191 0
191 -13 -189 0
192 -191 0
191 -192 0
-14 -192 -193 0
14 192 -193 0
192 193 -14 0
14 193 -192 0
14 -194 0
192 -194 0
194 -14 -192 0
195 -194 0
194 -195 0
-168 -196 0
12 -196 0
168 196 -12 0
168 -197 0
-12 -197 0
12 197 -168 0
198 -196 0
198 -197 0
196 197 -198 0
-168 -199 0
13 -199 0
168 199 -13 0
168 -200 0
190 -200 0
200 -168 -190 0
201 -199 0
201 -200 0
199 200 -201 0
-168 -202 0
14 -202 0
168 202 -14 0
168 -203 0
193 -203 0
203 -168 -193 0
204 -202 0
204 -203 0
202 203 -204 0
-20 -198 -205 0
20 198 -205 0
198 205 -20 0
20 205 -198 0
-21 -201 -206 0
21 201 -206 0
201 206 -21 0
21 206 -201 0
-22 -204 -207 0
22 204 -207 0
204 207 -22 0
22 207 -204 0
-205 -208 0
-206 -208 0
-207 -208 0
205 206 207 208 0
16 -23 -209 0
23 -16 -209 0
209 -23 -16 0
23 16 209 0
-24 -15 -210 0
24 15 -210 0
15 210 -24 0
24 210 -15 0
188 -211 0
208 -211 0
-209 -211 0
-210 -211 0
209 210 211 -188 -208 0
-23 -24 -212 0
23 24 -212 0
24 212 -23 0
23 212 -24 0
213 -17 0
17 -213 0
-18 -213 -214 0
18 213 -214 0
213 214 -18 0
18 214 -213 0
18 -215 0
213 -215 0
215 -18 -213 0
216 -215 0
215 -216 0
-19 -216 -217 0
19 216 -217 0
216 217 -19 0
19 217 -216 0
19 -218 0
216 -218 0
218 -19 -216 0
219 -218 0
218 -219 0
-212 -220 0
-17 -220 0
212 17 220 0
212 -221 0
17 -221 0
221 -212 -17 0
222 -220 0
222 -221 0
220 221 -222 0
-212 -223 0
214 -223 0
212 223 -214 0
212 -224 0
18 -224 0
224 -212 -18 0
225 -223 0
225 -224 0
223 224 -225 0
-212 -226 0
217 -226 0
212 226 -217 0
212 -227 0
19 -227 0
227 -212 -19 0
228 -226 0
228 -227 0
226 227 -228 0
-25 -222 -229 0
25 222 -229 0
222 229 -25 0
25 229 -222 0
-26 -225 -230 0
26 225 -230 0
225 230 -26 0
26 230 -225 0
-27 -228 -231 0
27 228 -231 0
228 231 -27 0
27 231 -228 0
-229 -232 0
-230 -232 0
-231 -232 0
229 230 231 232 0
233 -20 0
20 -233 0
-21 -233 -234 0
21 233 -234 0
233 234 -21 0
21 234 -233 0
21 -235 0
233 -235 0
235 -21 -233 0
236 -235 0
235 -236 0
-22 -236 -237 0
22 236 -237 0
236 237 -22 0
22 237 -236 0
22 -238 0
236 -238 0
238 -22 -236 0
239 -238 0
238 -239 0
-212 -240 0
20 -240 0
212 240 -20 0
212 -241 0
-20 -241 0
20 241 -212 0
242 -240 0
242 -241 0
240 241 -242 0
-212 -243 0
21 -243 0
212 243 -21 0
212 -244 0
234 -244 0
244 -212 -234 0
245 -243 0
245 -244 0
243 244 -245 0
-212 -246 0
22 -246 0
212 246 -22 0
212 -247 0
237 -247 0
247 -212 -237 0
248 -246 0
248 -247 0
246 247 -248 0
-28 -242 -249 0
28 242 -249 0
242 249 -28 0
28 249 -242 0
-29 -245 -250 0
29 245 -250 0
245 250 -29 0
29 250 -245 0
-30 -248 -251 0
30 248 -251 0
248 251 -30 0
30 251 -248 0
-249 -252 0
-250 -252 0
-251 -252 0
249 250 251 252 0
24 -31 -253 0
31 -24 -253 0
253 -31 -24 0
31 24 253 0
-32 -23 -254 0
32 23 -254 0
23 254 -32 0
32 254 -23 0
232 -255 0
252 -255 0
-253 -255 0
-254 -255 0
253 254 255 -232 -252 0
-31 -32 -256 0
31 32 -256 0
32 256 -31 0
31 256 -32 0
257 -25 0
25 -257 0
-26 -257 -258 0
26 257 -258 0
257 258 -26 0
26 258 -257 0
26 -259 0
257 -259 0
259 -26 -257 0
260 -259 0
259 -260 0
-27 -260 -261 0
27 260 -261 0
260 261 -27 0
27 261 -260 0
27 -262 0
260 -262 0
262 -27 -260 0
263 -262 0
262 -263 0
-256 -264 0
-25 -264 0
256 25 264 0
256 -265 0
25 -265 0
265 -256 -25 0
266 -264 0
266 -265 0
264 265 -266 0
-256 -267 0
258 -267 0
256 267 -258 0
256 -268 0
26 -268 0
268 -256 -26 0
269 -267 0
269 -268 0
267 268 -269 0
-256 -270 0
261 -270 0
256 270 -261 0
256 -271 0
27 -271 0
271 -256 -27 0
272 -270 0
272 -271 0
270 271 -272 0
-33 -266 -273 0
33 266 -273 0
266 273 -33 0
33 273 -266 0
-34 -269 -274 0
34 269 -274 0
269 274 -34 0
34 274 -269 0
-35 -272 -275 0
35 272 -275 0
272 275 -35 0
35 275 -272 0
-273 -276 0
-274 -276 0
-275 -276 0
273 274 275 276 0
277 -28 0
28 -277 0
-29 -277 -278 0
29 277 -278 0
277 278 -29 0
29 278 -277 0
29 -279 0
277 -279 0
279 -29 -277 0
280 -279 0
279 -280 0
-30 -280 -281 0
30 280 -281 0
280 281 -30 0
30 281 -280 0
30 -282 0
280 -282 0
282 -30 -280 0
283 -282 0
282 -283 0
-256 -284 0
28 -284 0
256 284 -28 0
256 -285 0
-28 -285 0
28 285 -256 0
286 -284 0
286 -285 0
284 285 -286 0
-256 -287 0
29 -287 0
256 287 -29 0
256 -288 0
278 -288 0
288 -256 -278 0
289 -287 0
289 -288 0
287 288 -289 0
-256 -290 0
30 -290 0
256 290 -30 0
256 -291 0
281 -291 0
291 -256 -281 0
292 -290 0
292 -291 0
290 291 -292 0
-36 -286 -293 0
36 286 -293 0
286 293 -36 0
36 293 -286 0
-37 -289 -294 0
37 289 -294 0
289 294 -37 0
37 294 -289 0
-38 -292 -295 0
38 292 -295 0
292 295 -38 0
38 295 -292 0
-293 -296 0
-294 -296 0
-295 -296 0
293 294 295 296 0
32 -39 -297 0
39 -32 -297 0
297 -39 -32 0
39 32 297 0
-40 -31 -298 0
40 31 -298 0
31 298 -40 0
40 298 -31 0
276 -299 0
296 -299 0
-297 -299 0
-298 -299 0
297 298 299 -276 -296 0
-39 -40 -300 0
39 40 -300 0
40 300 -39 0
39 300 -40 0
301 -33 0
33 -301 0
-34 -301 -302 0
34 301 -302 0
301 302 -34 0
34 302 -301 0
34 -303 0
301 -303 0
303 -34 -301 0
304 -303 0
303 -304 0
-35 -304 -305 0
35 304 -305 0
304 305 -35 0
35 305 -304 0
35 -306 0
304 -306 0
306 -35 -304 0
307 -306 0
306 -307 0
-300 -308 0
-33 -308 0
300 33 308 0
300 -309 0
33 -309 0
309 -300 -33 0
310 -308 0
310 -309 0
308 309 -310 0
-300 -311 0
302 -311 0
300 311 -302 0
300 -312 0
34 -312 0
312 -300 -34 0
313 -311 0
313 -312 0
311 312 -313 0
-300 -314 0
305 -314 0
300 314 -305 0
300 -315 0
35 -315 0
315 -300 -35 0
316 -314 0
316 -315 0
314 315 -316 0
-41 -310 -317 0
41 310 -317 0
310 317 -41 0
41 317 -310 0
-42 -313 -318 0
42 313 -318 0
313 318 -42 0
42 318 -313 0
-43 -316 -319 0
43 316 -319 0
316 319 -43 0
43 319 -316 0
-317 -320 0
-318 -320 0
-319 -320 0
317 318 319 320 0
321 -36 0
36 -321 0
-37 -321 -322 0
37 321 -322 0
321 322 -37 0
37 322 -321 0
37 -323 0
321 -323 0
323 -37 -321 0
324 -323 0
323 -324 0
-38 -324 -325 0
38 324 -325 0
324 325 -38 0
38 325 -324 0
38 -326 0
324 -326 0
326 -38 -324 0
327 -326 0
326 -327 0
-300 -328 0
36 -328 0
300 328 -36 0
300 -329 0
-36 -329 0
36 329 -300 0
330 -328 0
330 -329 0
328 329 -330 0
-300 -331 0
37 -331 0
300 331 -37 0
300 -332 0
322 -332 0
332 -300 -322 0
333 -331 0
333 -332 0
331 332 -333 0
-300 -334 0
38 -334 0
300 334 -38 0
300 -335 0
325 -335 0
335 -300 -325 0
336 -334 0
336 -335 0
334 335 -336 0
-44 -330 -337 0
44 330 -337 0
330 337 -44 0
44 337 -330 0
-45 -333 -338 0
45 333 -338 0
333 338 -45 0
45 338 -333 0
-46 -336 -339 0
46 336 -339 0
336 339 -46 0
46 339 -336 0
-337 -340 0
-338 -340 0
-339 -340 0
337 338 339 340 0
40 -47 -341 0
47 -40 -341 0
341 -47 -40 0
47 40 341 0
-48 -39 -342 0
48 39 -342 0
39 342 -48 0
48 342 -39 0
320 -343 0
340 -343 0
-341 -343 0
-342 -343 0
341 342 343 -320 -340 0
-47 -48 -344 0
47 48 -344 0
48 344 -47 0
47 344 -48 0
345 -41 0
41 -345 0
-42 -345 -346 0
42 345 -346 0
345 346 -42 0
42 346 -345 0
42 -347 0
345 -347 0
347 -42 -345 0
348 -347 0
347 -348 0
-43 -348 -349 0
43 348 -349 0
348 349 -43 0
43 349 -348 0
43 -350 0
348 -350 0
350 -43 -348 0
351 -350 0
350 -351 0
-344 -352 0
-41 -352 0
344 41 352 0
344 -353 0
41 -353 0
353 -344 -41 0
354 -352 0
354 -353 0
352 353 -354 0
-344 -355 0
346 -355 0
344 355 -346 0
344 -356 0
42 -356 0
356 -344 -42 0
357 -355 0
357 -356 0
355 356 -357 0
-344 -358 0
349 -358 0
344 358 -349 0
344 -359 0
43 -359 0
359 -344 -43 0
360 -358 0
360 -359 0
358 359 -360 0
-49 -354 -361 0
49 354 -361 0
354 361 -49 0
49 361 -354 0
-50 -357 -362 0
50 357 -362 0
357 362 -50 0
50 362 -357 0
-51 -360 -363 0
51 360 -363 0
360 363 -51 0
51 363 -360 0
-361 -364 0
-362 -364 0
-363 -364 0
361 362 363 364 0
365 -44 0
44 -365 0
-45 -365 -366 0
45 365 -366 0
365 366 -45 0
45 366 -365 0
45 -367 0
365 -367 0
367 -45 -365 0
368 -367 0
367 -368 0
-46 -368 -369 0
46 368 -369 0
368 369 -46 0
46 369 -368 0
46 -370 0
368 -370 0
370 -46 -368 0
371 -370 0
370 -371 0
-344 -372 0
44 -372 0
344 372 -44 0
344 -373 0
-44 -373 0
44 373 -344 0
374 -372 0
374 -373 0
372 373 -374 0
-344 -375 0
45 -375 0
344 375 -45 0
344 -376 0
366 -376 0
376 -344 -366 0
377 -375 0
377 -376 0
375 376 -377 0
-344 -378 0
46 -378 0
344 378 -46 0
344 -379 0
369 -379 0
379 -344 -369 0
380 -378 0
380 -379 0
378 379 -380 0
-52 -374 -381 0
52 374 -381 0
374 381 -52 0
52 381 -374 0
-53 -377 -382 0
53 377 -382 0
377 382 -53 0
53 382 -377 0
-54 -380 -383 0
54 380 -383 0
380 383 -54 0
54 383 -380 0
-381 -384 0
-382 -384 0
-383 -384 0
381 382 383 384 0
48 -55 -385 0
55 -48 -385 0
385 -55 -48 0
55 48 385 0
-56 -47 -386 0
56 47 -386 0
47 386 -56 0
56 386 -47 0
364 -387 0
384 -387 0
-385 -387 0
-386 -387 0
385 386 387 -364 -384 0
-55 -56 -388 0
55 56 -388 0
56 388 -55 0
55 388 -56 0
389 -49 0
49 -389 0
-50 -389 -390 0
50 389 -390 0
389 390 -50 0
50 390 -389 0
50 -391 0
389 -391 0
391 -50 -389 0
392 -391 0
391 -392 0
-51 -392 -393 0
51 392 -393 0
392 393 -51 0
51 393 -392 0
51 -394 0
392 -394 0
394 -51 -392 0
395 -394 0
394 -395 0
-388 -396 0
-49 -396 0
388 49 396 0
388 -397 0
49 -397 0
397 -388 -49 0
398 -396 0
398 -397 0
396 397 -398 0
-388 -399 0
390 -399 0
388 399 -390 0
388 -400 0
50 -400 0
400 -388 -50 0
401 -399 0
401 -400 0
399 400 -401 0
-388 -402 0
393 -402 0
388 402 -393 0
388 -403 0
51 -403 0
403 -388 -51 0
404 -402 0
404 -403 0
402 403 -404 0
-57 -398 -405 0
57 398 -405 0
398 405 -57 0
57 405 -398 0
-58 -401 -406 0
58 401 -406 0
401 406 -58 0
58 406 -401 0
-59 -404 -407 0
59 404 -407 0
404 407 -59 0
59 407 -404 0
-405 -408 0
-406 -408 0
-407 -408 0
405 406 407 408 0
409 -52 0
52 -409 0
-53 -409 -410 0
53 409 -410 0
409 410 -53 0
53 410 -409 0
53 -411 0
409 -411 0
411 -53 -409 0
412 -411 0
411 -412 0
-54 -412 -413 0
54 412 -413 0
412 413 -54 0
54 413 -412 0
54 -414 0
412 -414 0
414 -54 -412 0
415 -414 0
414 -415 0
-388 -416 0
52 -416 0
388 416 -52 0
388 -417 0
-52 -417 0
52 417 -388 0
418 -416 0
418 -417 0
416 417 -418 0
-388 -419 0
53 -419 0
388 419 -53 0
388 -420 0
410 -420 0
420 -388 -410 0
421 -419 0
421 -420 0
419 420 -421 0
-388 -422 0
54 -422 0
388 422 -54 0
388 -423 0
413 -423 0
423 -388 -413 0
424 -422 0
424 -423 0
422 423 -424 0
-60 -418 -425 0
60 418 -425 0
418 425 -60 0
60 425 -418 0
-61 -421 -426 0
61 421 -426 0
421 426 -61 0
61 426 -421 0
-62 -424 -427 0
62 424 -427 0
424 427 -62 0
62 427 -424 0
-425 -428 0
-426 -428 0
-427 -428 0
425 426 427 428 0
56 -63 -429 0
63 -56 -429 0
429 -63 -56 0
63 56 429 0
-64 -55 -430 0
64 55 -430 0
55 430 -64 0
64 430 -55 0
408 -431 0
428 -431 0
-429 -431 0
-430 -431 0
429 430 431 -408 -428 0
123 -432 0
167 -432 0
211 -432 0
255 -432 0
299 -432 0
343 -432 0
387 -432 0
431 -432 0
432 -123 -167 -211 -255 -299 -343 -387 -431 0
-65 -433 0
-66 -433 0
-67 -433 0
65 66 67 433 0
-68 -434 0
-69 -434 0
-70 -434 0
68 69 70 434 0
433 -435 0
434 -435 0
-71 -435 0
-72 -435 0
71 72 435 -433 -434 0
-71 -72 -436 0
71 72 -436 0
72 436 -71 0
71 436 -72 0
437 -65 0
65 -437 0
-66 -437 -438 0
66 437 -438 0
437 438 -66 0
66 438 -437 0
66 -439 0
437 -439 0
439 -66 -437 0
440 -439 0
439 -440 0
-67 -440 -441 0
67 440 -441 0
440 441 -67 0
67 441 -440 0
67 -442 0
440 -442 0
442 -67 -440 0
443 -442 0
442 -443 0
-436 -444 0
-65 -444 0
436 65 444 0
436 -445 0
65 -445 0
445 -436 -65 0
446 -444 0
446 -445 0
444 445 -446 0
-436 -447 0
438 -447 0
436 447 -438 0
436 -448 0
66 -448 0
448 -436 -66 0
449 -447 0
449 -448 0
447 448 -449 0
-436 -450 0
441 -450 0
436 450 -441 0
436 -451 0
67 -451 0
451 -436 -67 0
452 -450 0
452 -451 0
450 451 -452 0
-73 -446 -453 0
73 446 -453 0
446 453 -73 0
73 453 -446 0
-74 -449 -454 0
74 449 -454 0
449 454 -74 0
74 454 -449 0
-75 -452 -455 0
75 452 -455 0
452 455 -75 0
75 455 -452 0
-453 -456 0
-454 -456 0
-455 -456 0
453 454 455 456 0
457 -68 0
68 -457 0
-69 -457 -458 0
69 457 -458 0
457 458 -69 0
69 458 -457 0
69 -459 0
457 -459 0
459 -69 -457 0
460 -459 0
459 -460 0
-70 -460 -461 0
70 460 -461 0
460 461 -70 0
70 461 -460 0
70 -462 0
460 -462 0
462 -70 -460 0
463 -462 0
462 -463 0
-436 -464 0
68 -464 0
436 464 -68 0
436 -465 0
-68 -465 0
68 465 -436 0
466 -464 0
466 -465 0
464 465 -466 0
-436 -467 0
69 -467 0
436 467 -69 0
436 -468 0
458 -468 0
468 -436 -458 0
469 -467 0
469 -468 0
467 468 -469 0
-436 -470 0
70 -470 0
436 470 -70 0
436 -471 0
461 -471 0
471 -436 -461 0
472 -470 0
472 -471 0
470 471 -472 0
-76 -466 -473 0
76 466 -473 0
466 473 -76 0
76 473 -466 0
-77 -469 -474 0
77 469 -474 0
469 474 -77 0
77 474 -469 0
-78 -472 -475 0
78 472 -475 0
472 475 -78 0
78 475 -472 0
-473 -476 0
-474 -476 0
-475 -476 0
473 474 475 476 0
72 -79 -477 0
79 -72 -477 0
477 -79 -72 0
79 72 477 0
-80 -71 -478 0
80 71 -478 0
71 478 -80 0
80 478 -71 0
456 -479 0
476 -479 0
-477 -479 0
-478 -479 0
477 478 479 -456 -476 0
-79 -80 -480 0
79 80 -480 0
80 480 -79 0
79 480 -80 0
481 -73 0
73 -481 0
-74 -481 -482 0
74 481 -482 0
481 482 -74 0
74 482 -481 0
74 -483 0
481 -483 0
483 -74 -481 0
484 -483 0
483 -484 0
-75 -484 -485 0
75 484 -485 0
484 485 -75 0
75 485 -484 0
75 -486 0
484 -486 0
486 -75 -484 0
487 -486 0
486 -487 0
-480 -488 0
-73 -488 0
480 73 488 0
480 -489 0
73 -489 0
489 -480 -73 0
490 -488 0
490 -489 0
488 489 -490 0
-480 -491 0
482 -491 0
480 491 -482 0
480 -492 0
74 -492 0
492 -480 -74 0
493 -491 0
493 -492 0
491 492 -493 0
-480 -494 0
485 -494 0
480 494 -485 0
480 -495 0
75 -495 0
495 -480 -75 0
496 -494 0
496 -495 0
494 495 -496 0
-81 -490 -497 0
81 490 -497 0
490 497 -81 0
81 497 -490 0
-82 -493 -498 0
82 493 -498 0
493 498 -82 0
82 498 -493 0
-83 -496 -499 0
83 496 -499 0
496 499 -83 0
83 499 -496 0
-497 -500 0
-498 -500 0
-499 -500 0
497 498 499 500 0
501 -76 0
76 -501 0
-77 -501 -502 0
77 501 -502 0
501 502 -77 0
77 502 -501 0
77 -503 0
501 -503 0
503 -77 -501 0
504 -503 0
503 -504 0
-78 -504 -505 0
78 504 -505 0
504 505 -78 0
78 505 -504 0
78 -506 0
504 -506 0
506 -78 -504 0
507 -506 0
506 -507 0
-480 -508 0
76 -508 0
480 508 -76 0
480 -509 0
-76 -509 0
76 509 -480 0
510 -508 0
510 -509 0
508 509 -510 0
-480 -511 0
77 -511 0
480 511 -77 0
480 -512 0
502 -512 0
512 -480 -502 0
513 -511 0
513 -512 0
511 512 -513 0
-480 -514 0
78 -514 0
480 514 -78 0
480 -515 0
505 -515 0
515 -480 -505 0
516 -514 0
516 -515 0
514 515 -516 0
-84 -510 -517 0
84 510 -517 0
510 517 -84 0
84 517 -510 0
-85 -513 -518 0
85 513 -518 0
513 518 -85 0
85 518 -513 0
-86 -516 -519 0
86 516 -519 0
516 519 -86 0
86 519 -516 0
-517 -520 0
-518 -520 0
-519 -520 0
517 518 519 520 0
80 -87 -521 0
87 -80 -521 0
521 -87 -80 0
87 80 521 0
-88 -79 -522 0
88 79 -522 0
79 522 -88 0
88 522 -79 0
500 -523 0
520 -523 0
-521 -523 0
-522 -523 0
521 522 523 -500 -520 0
-87 -88 -524 0
87 88 -524 0
88 524 -87 0
87 524 -88 0
525 -81 0
81 -525 0
-82 -525 -526 0
82 525 -526 0
525 526 -82 0
82 526 -525 0
82 -527 0
525 -527 0
527 -82 -525 0
528 -527 0
527 -528 0
-83 -528 -529 0
83 528 -529 0
528 529 -83 0
83 529 -528 0
83 -530 0
528 -530 0
530 -83 -528 0
531 -530 0
530 -531 0
-524 -532 0
-81 -532 0
524 81 532 0
524 -533 0
81 -533 0
533 -524 -81 0
534 -532 0
534 -533 0
532 533 -534 0
-524 -535 0
526 -535 0
524 535 -526 0
524 -536 0
82 -536 0
536 -524 -82 0
537 -535 0
537 -536 0
535 536 -537 0
-524 -538 0
529 -538 0
524 538 -529 0
524 -539 0
83 -539 0
539 -524 -83 0
540 -538 0
540 -539 0
538 539 -540 0
-89 -534 -541 0
89 534 -541 0
534 541 -89 0
89 541 -534 0
-90 -537 -542 0
90 537 -542 0
537 542 -90 0
90 542 -537 0
-91 -540 -543 0
91 540 -543 0
540 543 -91 0
91 543 -540 0
-541 -544 0
-542 -544 0
-543 -544 0
541 542 543 544 0
545 -84 0
84 -545 0
-85 -545 -546 0
85 545 -546 0
545 546 -85 0
85 546 -545 0
85 -547 0
545 -547 0
547 -85 -545 0
548 -547 0
547 -548 0
-86 -548 -549 0
86 548 -549 0
548 549 -86 0
86 549 -548 0
86 -550 0
548 -550 0
550 -86 -548 0
551 -550 0
550 -551 0
-524 -552 0
84 -552 0
524 552 -84 0
524 -553 0
-84 -553 0
84 553 -524 0
554 -552 0
554 -553 0
552 553 -554 0
-524 -555 0
85 -555 0
524 555 -85 0
524 -556 0
546 -556 0
556 -524 -546 0
557 -555 0
557 -556 0
555 556 -557 0
-524 -558 0
86 -558 0
524 558 -86 0
524 -559 0
549 -559 0
559 -524 -549 0
560 -558 0
560 -559 0
558 559 -560 0
-92 -554 -561 0
92 554 -561 0
554 561 -92 0
92 561 -554 0
-93 -557 -562 0
93 557 -562 0
557 562 -93 0
93 562 -557 0
-94 -560 -563 0
94 560 -563 0
560 563 -94 0
94 563 -560 0
-561 -564 0
-562 -564 0
-563 -564 0
561 562 563 564 0
88 -95 -565 0
95 -88 -565 0
565 -95 -88 0
95 88 565 0
-96 -87 -566 0
96 87 -566 0
87 566 -96 0
96 566 -87 0
544 -567 0
564 -567 0
-565 -567 0
-566 -567 0
565 566 567 -544 -564 0
-95 -96 -568 0
95 96 -568 0
96 568 -95 0
95 568 -96 0
569 -89 0
89 -569 0
-90 -569 -570 0
90 569 -570 0
569 570 -90 0
90 570 -569 0
90 -571 0
569 -571 0
571 -90 -569 0
572 -571 0
571 -572 0
-91 -572 -573 0
91 572 -573 0
572 573 -91 0
91 573 -572 0
91 -574 0
572 -574 0
574 -91 -572 0
575 -574 0
574 -575 0
-568 -576 0
-89 -576 0
568 89 576 0
568 -577 0
89 -577 0
577 -568 -89 0
578 -576 0
578 -577 0
576 577 -578 0
-568 -579 0
570 -579 0
568 579 -570 0
568 -580 0
90 -580 0
580 -568 -90 0
581 -579 0
581 -580 0
579 580 -581 0
-568 -582 0
573 -582 0
568 582 -573 0
568 -583 0
91 -583 0
583 -568 -91 0
584 -582 0
584 -583 0
582 583 -584 0
-97 -578 -585 0
97 578 -585 0
578 585 -97 0
97 585 -578 0
-98 -581 -586 0
98 581 -586 0
581 586 -98 0
98 586 -581 0
-99 -584 -587 0
99 584 -587 0
584 587 -99 0
99 587 -584 0
-585 -588 0
-586 -588 0
-587 -588 0
585 586 587 588 0
589 -92 0
92 -589 0
-93 -589 -590 0
93 589 -590 0
589 590 -93 0
93 590 -589 0
93 -591 0
589 -591 0
591 -93 -589 0
592 -591 0
591 -592 0
-94 -592 -593 0
94 592 -593 0
592 593 -94 0
94 593 -592 0
94 -594 0
592 -594 0
594 -94 -592 0
595 -594 0
594 -595 0
-568 -596 0
92 -596 0
568 596 -92 0
568 -597 0
-92 -597 0
92 597 -568 0
598 -596 0
598 -597 0
596 597 -598 0
-568 -599 0
93 -599 0
568 599 -93 0
568 -600 0
590 -600 0
600 -568 -590 0
601 -599 0
601 -600 0
599 600 -601 0
-568 -602 0
94 -602 0
568 602 -94 0
568 -603 0
593 -603 0
603 -568 -593 0
604 -602 0
604 -603 0
602 603 -604 0
-100 -598 -605 0
100 598 -605 0
598 605 -100 0
100 605 -598 0
-101 -601 -606 0
101 601 -606 0
601 606 -101 0
101 606 -601 0
-102 -604 -607 0
102 604 -607 0
604 607 -102 0
102 607 -604 0
-605 -608 0
-606 -608 0
-607 -608 0
605 606 607 608 0
96 -103 -609 0
103 -96 -609 0
609 -103 -96 0
103 96 609 0
-104 -95 -610 0
104 95 -610 0
95 610 -104 0
104 610 -95 0
588 -611 0
608 -611 0
-609 -611 0
-610 -611 0
609 610 611 -588 -608 0
-103 -104 -612 0
103 104 -612 0
104 612 -103 0
103 612 -104 0
613 -97 0
97 -613 0
-98 -613 -614 0
98 613 -614 0
613 614 -98 0
98 614 -613 0
98 -615 0
613 -615 0
615 -98 -613 0
616 -615 0
615 -616 0
-99 -616 -617 0
99 616 -617 0
616 617 -99 0
99 617 -616 0
99 -618 0
616 -618 0
618 -99 -616 0
619 -618 0
618 -619 0
-612 -620 0
-97 -620 0
612 97 620 0
612 -621 0
97 -621 0
621 -612 -97 0
622 -620 0
622 -621 0
620 621 -622 0
-612 -623 0
614 -623 0
612 623 -614 0
612 -624 0
98 -624 0
624 -612 -98 0
625 -623 0
625 -624 0
623 624 -625 0
-612 -626 0
617 -626 0
612 626 -617 0
612 -627 0
99 -627 0
627 -612 -99 0
628 -626 0
628 -627 0
626 627 -628 0
-105 -622 -629 0
105 622 -629 0
622 629 -105 0
105 629 -622 0
-106 -625 -630 0
106 625 -630 0
625 630 -106 0
106 630 -625 0
-107 -628 -631 0
107 628 -631 0
628 631 -107 0
107 631 -628 0
-629 -632 0
-630 -632 0
-631 -632 0
629 630 631 632 0
633 -100 0
100 -633 0
-101 -633 -634 0
101 633 -634 0
633 634 -101 0
101 634 -633 0
101 -635 0
633 -635 0
635 -101 -633 0
636 -635 0
635 -636 0
-102 -636 -637 0
102 636 -637 0
636 637 -102 0
102 637 -636 0
102 -638 0
636 -638 0
638 -102 -636 0
639 -638 0
638 -639 0
-612 -640 0
100 -640 0
612 640 -100 0
612 -641 0
-100 -641 0
100 641 -612 0
642 -640 0
642 -641 0
640 641 -642 0
-612 -643 0
101 -643 0
612 643 -101 0
612 -644 0
634 -644 0
644 -612 -634 0
645 -643 0
645 -644 0
643 644 -645 0
-612 -646 0
102 -646 0
612 646 -102 0
612 -647 0
637 -647 0
647 -612 -637 0
648 -646 0
648 -647 0
646 647 -648 0
-108 -642 -649 0
108 642 -649 0
642 649 -108 0
108 649 -642 0
-109 -645 -650 0
109 645 -650 0
645 650 -109 0
109 650 -645 0
-110 -648 -651 0
110 648 -651 0
648 651 -110 0
110 651 -648 0
-649 -652 0
-650 -652 0
-651 -652 0
649 650 651 652 0
104 -111 -653 0
111 -104 -653 0
653 -111 -104 0
111 104 653 0
-112 -103 -654 0
112 103 -654 0
103 654 -112 0
112 654 -103 0
632 -655 0
652 -655 0
-653 -655 0
-654 -655 0
653 654 655 -632 -652 0
-111 -112 -656 0
111 112 -656 0
112 656 -111 0
111 656 -112 0
657 -105 0
105 -657 0
-106 -657 -658 0
106 657 -658 0
657 658 -106 0
106 658 -657 0
106 -659 0
657 -659 0
659 -106 -657 0
660 -659 0
659 -660 0
-107 -660 -661 0
107 660 -661 0
660 661 -107 0
107 661 -660 0
107 -662 0
660 -662 0
662 -107 -660 0
663 -662 0
662 -663 0
-656 -664 0
-105 -664 0
656 105 664 0
656 -665 0
105 -665 0
665 -656 -105 0
666 -664 0
666 -665 0
664 665 -666 0
-656 -667 0
658 -667 0
656 667 -658 0
656 -668 0
106 -668 0
668 -656 -106 0
669 -667 0
669 -668 0
667 668 -669 0
-656 -670 0
661 -670 0
656 670 -661 0
656 -671 0
107 -671 0
671 -656 -107 0
672 -670 0
672 -671 0
670 671 -672 0
-113 -666 -673 0
113 666 -673 0
666 673 -113 0
113 673 -666 0
-114 -669 -674 0
114 669 -674 0
669 674 -114 0
114 674 -669 0
-115 -672 -675 0
115 672 -675 0
672 675 -115 0
115 675 -672 0
-673 -676 0
-674 -676 0
-675 -676 0
673 674 675 676 0
677 -108 0
108 -677 0
-109 -677 -678 0
109 677 -678 0
677 678 -109 0
109 678 -677 0
109 -679 0
677 -679 0
679 -109 -677 0
680 -679 0
679 -680 0
-110 -680 -681 0
110 680 -681 0
680 681 -110 0
110 681 -680 0
110 -682 0
680 -682 0
682 -110 -680 0
683 -682 0
682 -683 0
-656 -684 0
108 -684 0
656 684 -108 0
656 -685 0
-108 -685 0
108 685 -656 0
686 -684 0
686 -685 0
684 685 -686 0
-656 -687 0
109 -687 0
656 687 -109 0
656 -688 0
678 -688 0
688 -656 -678 0
689 -687 0
689 -688 0
687 688 -689 0
-656 -690 0
110 -690 0
656 690 -110 0
656 -691 0
681 -691 0
691 -656 -681 0
692 -690 0
692 -691 0
690 691 -692 0
-116 -686 -693 0
116 686 -693 0
686 693 -116 0
116 693 -686 0
-117 -689 -694 0
117 689 -694 0
689 694 -117 0
117 694 -689 0
-118 -692 -695 0
118 692 -695 0
692 695 -118 0
118 695 -692 0
-693 -696 0
-694 -696 0
-695 -696 0
693 694 695 696 0
112 -119 -697 0
119 -112 -697 0
697 -119 -112 0
119 112 697 0
-120 -111 -698 0
120 111 -698 0
111 698 -120 0
120 698 -111 0
676 -699 0
696 -699 0
-697 -699 0
-698 -699 0
697 698 699 -676 -696 0
435 -700 0
479 -700 0
523 -700 0
567 -700 0
611 -700 0
655 -700 0
699 -700 0
700 -435 -479 -523 -567 -611 -655 -699 0
-57 -65 -701 0
57 65 -701 0
65 701 -57 0
57 701 -65 0
-58 -66 -702 0
58 66 -702 0
66 702 -58 0
58 702 -66 0
-59 -67 -703 0
59 67 -703 0
67 703 -59 0
59 703 -67 0
-701 -704 0
-702 -704 0
-703 -704 0
701 702 703 704 0
-60 -68 -705 0
60 68 -705 0
68 705 -60 0
60 705 -68 0
-61 -69 -706 0
61 69 -706 0
69 706 -61 0
61 706 -69 0
-62 -70 -707 0
62 70 -707 0
70 707 -62 0
62 707 -70 0
-705 -708 0
-706 -708 0
-707 -708 0
705 706 707 708 0
-63 -71 -709 0
63 71 -709 0
71 709 -63 0
63 709 -71 0
-64 -72 -710 0
64 72 -710 0
72 710 -64 0
64 710 -72 0
704 -711 0
708 -711 0
-709 -711 0
-710 -711 0
709 710 711 -704 -708 0
-57 -73 -712 0
57 73 -712 0
73 712 -57 0
57 712 -73 0
-58 -74 -713 0
58 74 -713 0
74 713 -58 0
58 713 -74 0
-59 -75 -714 0
59 75 -714 0
75 714 -59 0
59 714 -75 0
-712 -715 0
-713 -715 0
-714 -715 0
712 713 714 715 0
-60 -76 -716 0
60 76 -716 0
76 716 -60 0
60 716 -76 0
-61 -77 -717 0
61 77 -717 0
77 717 -61 0
61 717 -77 0
-62 -78 -718 0
62 78 -718 0
78 718 -62 0
62 718 -78 0
-716 -719 0
-717 -719 0
-718 -719 0
716 717 718 719 0
-63 -79 -720 0
63 79 -720 0
79 720 -63 0
63 720 -79 0
-64 -80 -721 0
64 80 -721 0
80 721 -64 0
64 721 -80 0
715 -722 0
719 -722 0
-720 -722 0
-721 -722 0
720 721 722 -715 -719 0
-57 -81 -723 0
57 81 -723 0
81 723 -57 0
57 723 -81 0
-58 -82 -724 0
58 82 -724 0
82 724 -58 0
58 724 -82 0
-59 -83 -725 0
59 83 -725 0
83 725 -59 0
59 725 -83 0
-723 -726 0
-724 -726 0
-725 -726 0
723 724 725 726 0
-60 -84 -727 0
60 84 -727 0
84 727 -60 0
60 727 -84 0
-61 -85 -728 0
61 85 -728 0
85 728 -61 0
61 728 -85 0
-62 -86 -729 0
62 86 -729 0
86 729 -62 0
62 729 -86 0
-727 -730 0
-728 -730 0
-729 -730 0
727 728 729 730 0
-63 -87 -731 0
63 87 -731 0
87 731 -63 0
63 731 -87 0
-64 -88 -732 0
64 88 -732 0
88 732 -64 0
64 732 -88 0
726 -733 0
730 -733 0
-731 -733 0
-732 -733 0
731 732 733 -726 -730 0
-57 -89 -734 0
57 89 -734 0
89 734 -57 0
57 734 -89 0
-58 -90 -735 0
58 90 -735 0
90 735 -58 0
58 735 -90 0
-59 -91 -736 0
59 91 -736 0
91 736 -59 0
59 736 -91 0
-734 -737 0
-735 -737 0
-736 -737 0
734 735 736 737 0
-60 -92 -738 0
60 92 -738 0
92 738 -60 0
60 738 -92 0
-61 -93 -739 0
61 93 -739 0
93 739 -61 0
61 739 -93 0
-62 -94 -740 0
62 94 -740 0
94 740 -62 0
62 740 -94 0
-738 -741 0
-739 -741 0
-740 -741 0
738 739 740 741 0
-63 -95 -742 0
63 95 -742 0
95 742 -63 0
63 742 -95 0
-64 -96 -743 0
64 96 -743 0
96 743 -64 0
64 743 -96 0
737 -744 0
741 -744 0
-742 -744 0
-743 -744 0
742 743 744 -737 -741 0
-57 -97 -745 0
57 97 -745 0
97 745 -57 0
57 745 -97 0
-58 -98 -746 0
58 98 -746 0
98 746 -58 0
58 746 -98 0
-59 -99 -747 0
59 99 -747 0
99 747 -59 0
59 747 -99 0
-745 -748 0
-746 -748 0
-747 -748 0
745 746 747 748 0
-60 -100 -749 0
60 100 -749 0
100 749 -60 0
60 749 -100 0
-61 -101 -750 0
61 101 -750 0
101 750 -61 0
61 750 -101 0
-62 -102 -751 0
62 102 -751 0
102 751 -62 0
62 751 -102 0
-749 -752 0
-750 -752 0
-751 -752 0
749 750 751 752 0
-63 -103 -753 0
63 103 -753 0
103 753 -63 0
63 753 -103 0
-64 -104 -754 0
64 104 -754 0
104 754 -64 0
64 754 -104 0
748 -755 0
752 -755 0
-753 -755 0
-754 -755 0
753 754 755 -748 -752 0
-57 -105 -756 0
57 105 -756 0
105 756 -57 0
57 756 -105 0
-58 -106 -757 0
58 106 -757 0
106 757 -58 0
58 757 -106 0
-59 -107 -758 0
59 107 -758 0
107 758 -59 0
59 758 -107 0
-756 -759 0
-757 -759 0
-758 -759 0
756 757 758 759 0
-60 -108 -760 0
60 108 -760 0
108 760 -60 0
60 760 -108 0
-61 -109 -761 0
61 109 -761 0
109 761 -61 0
61 761 -109 0
-62 -110 -762 0
62 110 -762 0
110 762 -62 0
62 762 -110 0
-760 -763 0
-761 -763 0
-762 -763 0
760 761 762 763 0
-63 -111 -764 0
63 111 -764 0
111 764 -63 0
63 764 -111 0
-64 -112 -765 0
64 112 -765 0
112 765 -64 0
64 765 -112 0
759 -766 0
763 -766 0
-764 -766 0
-765 -766 0
764 765 766 -759 -763 0
-57 -113 -767 0
57 113 -767 0
113 767 -57 0
57 767 -113 0
-58 -114 -768 0
58 114 -768 0
114 768 -58 0
58 768 -114 0
-59 -115 -769 0
59 115 -769 0
115 769 -59 0
59 769 -115 0
-767 -770 0
-768 -770 0
-769 -770 0
767 768 769 770 0
-60 -116 -771 0
60 116 -771 0
116 771 -60 0
60 771 -116 0
-61 -117 -772 0
61 117 -772 0
117 772 -61 0
61 772 -117 0
-62 -118 -773 0
62 118 -773 0
118 773 -62 0
62 773 -118 0
-771 -774 0
-772 -774 0
-773 -774 0
771 772 773 774 0
-63 -119 -775 0
63 119 -775 0
119 775 -63 0
63 775 -119 0
-64 -120 -776 0
64 120 -776 0
120 776 -64 0
64 776 -120 0
770 -777 0
774 -777 0
-775 -777 0
-776 -777 0
775 776 777 -770 -774 0
778 -711 0
778 -722 0
778 -733 0
778 -744 0
778 -755 0
778 -766 0
778 -777 0
711 722 733 744 755 766 777 -778 0
700 -779 0
778 -779 0
779 -700 -778 0
779 -432 0
